2023/11/29
gurobi is now 11.0.0
previous version was 10.0.3
solving instance knapsack 50 10 sinabc2
Set parameter TokenServer to value "licences.gerad.lan"
Set parameter MIPGap to value 1e-06
Set parameter FuncPieceError to value 1e-06
Set parameter Threads to value 1
Set parameter FuncPieces to value -2
Set parameter TimeLimit to value 3600
Gurobi Optimizer version 12.0.0 build v12.0.0rc1 (linux64 - "AlmaLinux 9.6 (Sage Margay)")

CPU model: Intel(R) Xeon(R) Gold 6258R CPU @ 2.70GHz, instruction set [SSE2|AVX|AVX2|AVX512]
Thread count: 56 physical cores, 56 logical processors, using up to 1 threads

Non-default parameters:
TimeLimit  3600
MIPGap  1e-06
Threads  1
FuncPieces  -2
FuncPieceError  1e-06

Optimize a model with 251 rows, 350 columns and 550 nonzeros
Model fingerprint: 0xb79d1f59
Model has 100 function constraints treated as nonlinear
  50 POW, 50 SIN
Variable types: 300 continuous, 50 integer (50 binary)
Coefficient statistics:
  Matrix range     [1e-02, 1e+02]
  Objective range  [1e+00, 1e+00]
  Bounds range     [1e+00, 1e+10]
  RHS range        [1e+02, 1e+05]
Warning: Model contains large bounds
         Consider reformulating model or setting NumericFocus parameter
         to avoid numerical issues.
Presolve removed 200 rows and 200 columns
Presolve time: 0.00s
Presolved: 502 rows, 202 columns, 1151 nonzeros
Presolved model has 50 bilinear constraint(s)
Presolved model has 50 nonlinear constraint(s)

Solving non-convex MINLP

Variable types: 202 continuous, 0 integer (0 binary)
Found heuristic solution: objective -1339.167306

Root relaxation: objective -3.315452e+03, 195 iterations, 0.00 seconds (0.00 work units)

    Nodes    |    Current Node    |     Objective Bounds      |     Work
 Expl Unexpl |  Obj  Depth IntInf | Incumbent    BestBd   Gap | It/Node Time

     0     0 -3315.4515    0   65 -1339.1673 -3315.4515   148%     -    0s
     0     0 -2487.7313    0   69 -1339.1673 -2487.7313  85.8%     -    0s
     0     0 -2067.5339    0   63 -1339.1673 -2067.5339  54.4%     -    0s
     0     0 -2067.5035    0   63 -1339.1673 -2067.5035  54.4%     -    0s
     0     0 -2052.1865    0   35 -1339.1673 -2052.1865  53.2%     -    0s
     0     0 -2051.0755    0   36 -1339.1673 -2051.0755  53.2%     -    0s
     0     0 -2050.6073    0   36 -1339.1673 -2050.6073  53.1%     -    0s
     0     0 -2016.8224    0   32 -1339.1673 -2016.8224  50.6%     -    0s
H    0     0                    -1904.053243 -2016.8224  5.92%     -    0s
     0     2 -2016.8224    0   32 -1904.0532 -2016.8224  5.92%     -    0s
*  277   197             142    -1909.530560 -1995.9222  4.52%   4.5    0s
*  278   192             142    -1909.530570 -1995.9222  4.52%   4.5    0s
*  773   517              99    -1915.526137 -1988.5453  3.81%   9.1    0s
  6409  1056 -1942.0433   26   23 -1915.5261 -1942.2905  1.40%  15.8    5s
 12862   979 -1915.6139   39   14 -1915.5261 -1924.2797  0.46%  15.7   10s
 17897  1708 -1919.1058   37   19 -1915.5261 -1920.6938  0.27%  16.5   15s
*19499  1902              96    -1915.549819 -1920.2031  0.24%  16.8   16s
 22984  2099 -1916.5197   45   18 -1915.5498 -1919.4239  0.20%  17.0   20s
 28431  2174 infeasible   50      -1915.5498 -1918.5361  0.16%  17.1   25s
 33822  1889 -1915.9314   43   17 -1915.5498 -1917.7685  0.12%  16.9   30s
 38918  1267 -1916.0578   55   13 -1915.5498 -1916.8966  0.07%  16.6   35s
 44086   359 -1915.5589   58   10 -1915.5498 -1915.6508  0.01%  16.1   40s

Cutting planes:
  RLT: 32

Explored 45832 nodes (720010 simplex iterations) in 41.69 seconds (18.73 work units)
Thread count was 1 (of 56 available processors)

Solution count 6: -1915.55 -1915.53 -1909.53 ... -1339.17

Optimal solution found (tolerance 1.00e-06)
Best objective -1.915549818377e+03, best bound -1.915551730227e+03, gap 0.0001%

User-callback calls 110314, time in user-callback 0.04 sec
primal_bound = -1915.549818376556, dual_bound = 0.0, gap = 100.0, time = 42.0
